H2O                                     
   1.00000000000000     
    15.0000000000000000    0.0000000000000000    0.0000000000000000
     0.0000000000000000   15.0000000000000000    0.0000000000000000
     0.0000000000000000    0.0000000000000000   15.0000000000000000
   O    H 
     6    12
Direct
  0.9477292306045983  0.8891028915443590  0.9650527740316813
  0.0424628388998587  0.0364080505931859  0.8966769521708626
  0.9583850041528540  0.1094649420442012  0.0284221137660171
  0.0497725049137822  0.9617971743152053  0.1064134082167837
  0.8192272196625598  0.0002988923177986  0.0112356632005144
  0.1856199016695905  0.0074123162240469  0.0012426188442856
  0.8920551343037413  0.9223690297836288  0.9788104596711052
  0.9315234462783655  0.8283672336754145  0.9522828896687050
  0.0132733410431755  0.9785477805824830  0.9015042080834248
  0.1023024102363696  0.0264742531899086  0.9220277631388762
  0.9928383241363324  0.0893646608832135  0.9739309786585433
  0.9641114662023059  0.1731399008183130  0.0334791363175440
  0.0160519871539276  0.9238740783162852  0.0656544254962726
  0.0193415437291850  0.0189900721228480  0.1022506756551875
  0.8613924307892857  0.0501599579487231  0.0202682682313277
  0.7752605789834535  0.0207066201155442  0.9691847912749585
  0.1435200737890469  0.9853714673335605  0.0472876740963963
  0.2347044301182265  0.9662539448579361  0.9986302661442107
 
  0.00000000E+00  0.00000000E+00  0.00000000E+00
  0.00000000E+00  0.00000000E+00  0.00000000E+00
  0.00000000E+00  0.00000000E+00  0.00000000E+00
  0.00000000E+00  0.00000000E+00  0.00000000E+00
  0.00000000E+00  0.00000000E+00  0.00000000E+00
  0.00000000E+00  0.00000000E+00  0.00000000E+00
  0.00000000E+00  0.00000000E+00  0.00000000E+00
  0.00000000E+00  0.00000000E+00  0.00000000E+00
  0.00000000E+00  0.00000000E+00  0.00000000E+00
  0.00000000E+00  0.00000000E+00  0.00000000E+00
  0.00000000E+00  0.00000000E+00  0.00000000E+00
  0.00000000E+00  0.00000000E+00  0.00000000E+00
  0.00000000E+00  0.00000000E+00  0.00000000E+00
  0.00000000E+00  0.00000000E+00  0.00000000E+00
  0.00000000E+00  0.00000000E+00  0.00000000E+00
  0.00000000E+00  0.00000000E+00  0.00000000E+00
  0.00000000E+00  0.00000000E+00  0.00000000E+00
  0.00000000E+00  0.00000000E+00  0.00000000E+00
