H2 atom
1.0
15.0 0.00 0.00
0.00 15.0 0.00
0.00 0.00 15.0
1
cart
0.00 0.00 0.00
