kpoints for bandstructure L-G-X-U K-G
 10
line
reciprocal
  0.50000  0.50000  0.50000    1
  0.00000  0.00000  0.00000    1

  0.00000  0.00000  0.00000    1
  0.00000  0.50000  0.50000    1

  0.00000  0.50000  0.50000    1
  0.25000  0.62500  0.62500    1

  0.37500  0.7500   0.37500    1
  0.00000  0.00000  0.00000    1
