system Si                               
   5.43000000000000     
     0.5032916007616510    0.5032916007616510    0.0000000000000000
    -0.0000000000000000    0.5032916007616510    0.5032916007616510
     0.5032916007616510    0.0000000000000000    0.5032916007616510
   Si
     2
Direct
  0.0000000000000000  0.0000000000000000  0.0000000000000000
  0.2500000000000000  0.2500000000000000  0.2500000000000000
 
  0.00000000E+00  0.00000000E+00  0.00000000E+00
  0.00000000E+00  0.00000000E+00  0.00000000E+00
