H2 molecule                             
   1.00000000000000     
    15.0000000000000000    0.0000000000000000    0.0000000000000000
     0.0000000000000000   15.0000000000000000    0.0000000000000000
     0.0000000000000000    0.0000000000000000   15.0000000000000000
   H 
     2
Direct
  0.0000000000000000  0.0000000000000000 -0.0003610195091201
  0.0000000000000000  0.0000000000000000  0.0496943528424568
 
  0.00000000E+00  0.00000000E+00  0.00000000E+00
  0.00000000E+00  0.00000000E+00  0.00000000E+00
