! initialization
System = bulk Si
ISTART = 0       ! new calculation
ICHARG = 2

! electronic optimization
ENCUT = 250
ISMEAR = 0; SIGMA = 0.1

! ionic relaxation
IBRION = 2       ! use CG algorithm to converge
ISIF = 3         ! relax atoms and cell
NSW = 100        ! 100 ionic steps
EDIFFG = -0.02   ! forces smaller 0.02 A/eV

