! initialization
System = bulk Si
ISTART = 1; ICHARG = 11      ! charge read from CHGCAR

! electronic optimization
ENCUT = 250
ISMEAR = -5      ! tetrahedron method

! DOS
LORBIT = 11      ! output DOSCAR and PROCAR (total DOS and l,m partial DOS)
NEDOS =  1000    ! number of points of DOS
! EMIN =           ! energy range of DOS
! EMAX = 
! NBANDS =         ! number of bands, obtained in OUTCAR or EIGENVAL of scf calculation
