H2O                                     
   1.00000000000000     
    15.0000000000000000    0.0000000000000000    0.0000000000000000
     0.0000000000000000   15.0000000000000000    0.0000000000000000
     0.0000000000000000    0.0000000000000000   15.0000000000000000
   O    H 
     6    12
Direct
  0.8542948960274055  0.9063070654902965  0.0319247551320072
  0.0014924690087266  0.9127059224452559  0.9400879685562359
  0.1618702181539622  0.9081892162631346  0.0234402701002131
  0.1494159694182101  0.0871530302956931  0.0308096427098809
  0.8423611587933778  0.0795088182531541  0.0296026698951906
  0.9914565676218038  0.1014079539721565  0.9447063374745165
  0.9119341661411212  0.9009052005671907  0.9983338636322503
  0.8113733054360809  0.8698726336748331  0.0011980408572915
  0.0589733042811024  0.9012259992810704  0.9697809258694360
  0.0020577728743400  0.9763735712110467  0.9272800277836244
  0.1645625056402817  0.9735886547894127  0.0300661836802780
  0.2134630907273644  0.8912780892338258  0.9892476636106939
  0.0915327267819902  0.0990418333289821  0.0022306643344748
  0.1483134846343643  0.1165689784254081  0.0878026826905216
  0.8396591930486670  0.0127751974901867  0.0330713280327183
  0.8356730403010300  0.1015245600129982  0.0894789783790556
  0.9337333240631529  0.0990895724036295  0.9787033468807544
  0.9835072070470161  0.1421666361950512  0.8957907170475170
 
  0.00000000E+00  0.00000000E+00  0.00000000E+00
  0.00000000E+00  0.00000000E+00  0.00000000E+00
  0.00000000E+00  0.00000000E+00  0.00000000E+00
  0.00000000E+00  0.00000000E+00  0.00000000E+00
  0.00000000E+00  0.00000000E+00  0.00000000E+00
  0.00000000E+00  0.00000000E+00  0.00000000E+00
  0.00000000E+00  0.00000000E+00  0.00000000E+00
  0.00000000E+00  0.00000000E+00  0.00000000E+00
  0.00000000E+00  0.00000000E+00  0.00000000E+00
  0.00000000E+00  0.00000000E+00  0.00000000E+00
  0.00000000E+00  0.00000000E+00  0.00000000E+00
  0.00000000E+00  0.00000000E+00  0.00000000E+00
  0.00000000E+00  0.00000000E+00  0.00000000E+00
  0.00000000E+00  0.00000000E+00  0.00000000E+00
  0.00000000E+00  0.00000000E+00  0.00000000E+00
  0.00000000E+00  0.00000000E+00  0.00000000E+00
  0.00000000E+00  0.00000000E+00  0.00000000E+00
  0.00000000E+00  0.00000000E+00  0.00000000E+00
