H2 molecule
1.0
15.0 0.00 0.00
0.00 15.0 0.00
0.00 0.00 15.0
2
cart
0.00 0.00 0.00
0.00 0.00 0.74
