H2O                                     
   1.00000000000000     
    15.0000000000000000    0.0000000000000000    0.0000000000000000
     0.0000000000000000   15.0000000000000000    0.0000000000000000
     0.0000000000000000    0.0000000000000000   15.0000000000000000
   O    H 
     6    12
Direct
  0.9371527512882055  0.9226478006628535  0.9104287950451864
  0.9382549534483764  0.9127463327604549  0.0901134624012310
  0.8703161357578286  0.0701175447097582  0.0059042271151032
  0.0366940634331600  0.1310031486006678  0.0035554053998388
  0.0965410971418715  0.9858636175568003  0.9061903997435974
  0.1146832323714916  0.9760878601955767  0.0838828872137678
  0.9374904227208057  0.9012802985495511  0.9728619490334846
  0.8994252900995273  0.9751759847926948  0.9155160386088967
  0.9998625642404105  0.9310897174371019  0.1002501208672007
  0.9049399327938018  0.9680652765810460  0.0837161622862284
  0.9291906779441711  0.1005586443622506  0.0058547501889709
  0.8253802960573283  0.1154555401014891  0.0121206393430060
  0.0619063466323610  0.0964238772767972  0.9544837376653650
  0.0646814095472271  0.1041172871016268  0.0552828530042099
  0.0349315063449715  0.9582327864126517  0.9006873710760577
  0.1308292506945577  0.9689439336097697  0.8546992910527873
  0.1224193021850161  0.9698982726750250  0.0189578080352488
  0.1661581672988961  0.9504286766138706  0.1122923019198011
 
  0.00000000E+00  0.00000000E+00  0.00000000E+00
  0.00000000E+00  0.00000000E+00  0.00000000E+00
  0.00000000E+00  0.00000000E+00  0.00000000E+00
  0.00000000E+00  0.00000000E+00  0.00000000E+00
  0.00000000E+00  0.00000000E+00  0.00000000E+00
  0.00000000E+00  0.00000000E+00  0.00000000E+00
  0.00000000E+00  0.00000000E+00  0.00000000E+00
  0.00000000E+00  0.00000000E+00  0.00000000E+00
  0.00000000E+00  0.00000000E+00  0.00000000E+00
  0.00000000E+00  0.00000000E+00  0.00000000E+00
  0.00000000E+00  0.00000000E+00  0.00000000E+00
  0.00000000E+00  0.00000000E+00  0.00000000E+00
  0.00000000E+00  0.00000000E+00  0.00000000E+00
  0.00000000E+00  0.00000000E+00  0.00000000E+00
  0.00000000E+00  0.00000000E+00  0.00000000E+00
  0.00000000E+00  0.00000000E+00  0.00000000E+00
  0.00000000E+00  0.00000000E+00  0.00000000E+00
  0.00000000E+00  0.00000000E+00  0.00000000E+00
